50
1 0 25
2 0 2
2 1 21
3 0 25
3 1 43
3 2 21
4 0 43
4 1 41
4 2 24
4 3 44
5 0 35
5 1 37
5 2 16
5 3 39
5 4 20
6 0 16
6 1 47
6 2 5
6 3 40
6 4 30
6 5 32
7 0 19
7 1 7
7 2 8
7 3 33
7 4 19
7 5 34
7 6 4
8 0 26
8 1 11
8 2 27
8 3 45
8 4 1
8 5 20
8 6 21
8 7 19
9 0 47
9 1 44
9 2 36
9 3 5
9 4 39
9 5 36
9 6 17
9 7 43
9 8 18
10 0 31
10 1 42
10 2 32
10 3 19
10 4 35
10 5 34
10 6 40
10 7 45
10 8 38
10 9 15
11 0 21
11 1 15
11 2 43
11 3 35
11 4 6
11 5 34
11 6 35
11 7 40
11 8 36
11 9 15
11 10 15
12 0 13
12 1 34
12 2 14
12 3 6
12 4 44
12 5 8
12 6 31
12 7 19
12 8 8
12 9 41
12 10 22
12 11 3
13 0 31
13 1 12
13 2 41
13 3 25
13 4 35
13 5 11
13 6 37
13 7 45
13 8 36
13 9 20
13 10 46
13 11 18
13 12 48
14 0 1
14 1 33
14 2 20
14 3 37
14 4 35
14 5 49
14 6 2
14 7 25
14 8 29
14 9 25
14 10 34
14 11 37
14 12 10
14 13 2
15 0 32
15 1 34
15 2 4
15 3 38
15 4 50
15 5 47
15 6 31
15 7 25
15 8 45
15 9 18
15 10 48
15 11 16
15 12 41
15 13 3
15 14 48
16 0 38
16 1 9
16 2 12
16 3 14
16 4 5
16 5 21
16 6 20
16 7 18
16 8 28
16 9 22
16 10 32
16 11 37
16 12 29
16 13 42
16 14 38
16 15 43
17 0 13
17 1 36
17 2 46
17 3 34
17 4 35
17 5 25
17 6 7
17 7 18
17 8 48
17 9 26
17 10 8
17 11 44
17 12 35
17 13 1
17 14 2
17 15 32
17 16 37
18 0 36
18 1 38
18 2 8
18 3 15
18 4 33
18 5 40
18 6 23
18 7 19
18 8 13
18 9 7
18 10 38
18 11 40
18 12 10
18 13 21
18 14 33
18 15 25
18 16 28
18 17 12
19 0 37
19 1 31
19 2 12
19 3 24
19 4 26
19 5 2
19 6 32
19 7 23
19 8 49
19 9 30
19 10 48
19 11 19
19 12 2
19 13 7
19 14 44
19 15 4
19 16 9
19 17 46
19 18 18
20 0 47
20 1 20
20 2 25
20 3 32
20 4 10
20 5 32
20 6 31
20 7 47
20 8 7
20 9 18
20 10 49
20 11 17
20 12 17
20 13 40
20 14 40
20 15 42
20 16 6
20 17 50
20 18 38
20 19 27
21 0 16
21 1 38
21 2 25
21 3 23
21 4 34
21 5 12
21 6 38
21 7 24
21 8 46
21 9 26
21 10 6
21 11 23
21 12 34
21 13 35
21 14 29
21 15 22
21 16 38
21 17 2
21 18 33
21 19 17
21 20 6
22 0 22
22 1 34
22 2 43
22 3 2
22 4 13
22 5 20
22 6 20
22 7 3
22 8 49
22 9 8
22 10 2
22 11 26
22 12 36
22 13 17
22 14 4
22 15 12
22 16 8
22 17 30
22 18 30
22 19 11
22 20 20
22 21 13
23 0 50
23 1 29
23 2 16
23 3 41
23 4 35
23 5 19
23 6 43
23 7 27
23 8 7
23 9 16
23 10 21
23 11 22
23 12 45
23 13 15
23 14 37
23 15 14
23 16 38
23 17 49
23 18 16
23 19 15
23 20 37
23 21 20
23 22 35
24 0 30
24 1 28
24 2 6
24 3 50
24 4 48
24 5 3
24 6 46
24 7 24
24 8 48
24 9 26
24 10 46
24 11 6
24 12 44
24 13 50
24 14 6
24 15 24
24 16 38
24 17 45
24 18 16
24 19 16
24 20 34
24 21 32
24 22 3
24 23 28
25 0 1
25 1 1
25 2 8
25 3 49
25 4 6
25 5 29
25 6 37
25 7 14
25 8 5
25 9 11
25 10 47
25 11 36
25 12 8
25 13 42
25 14 47
25 15 15
25 16 45
25 17 26
25 18 26
25 19 12
25 20 35
25 21 45
25 22 26
25 23 15
25 24 35
26 0 26
26 1 14
26 2 1
26 3 21
26 4 7
26 5 9
26 6 5
26 7 33
26 8 45
26 9 22
26 10 19
26 11 19
26 12 5
26 13 36
26 14 12
26 15 50
26 16 16
26 17 42
26 18 14
26 19 32
26 20 18
26 21 3
26 22 33
26 23 40
26 24 40
26 25 32
27 0 25
27 1 26
27 2 18
27 3 20
27 4 3
27 5 24
27 6 25
27 7 37
27 8 37
27 9 8
27 10 32
27 11 15
27 12 10
27 13 38
27 14 7
27 15 2
27 16 44
27 17 26
27 18 48
27 19 42
27 20 45
27 21 29
27 22 25
27 23 15
27 24 10
27 25 34
27 26 2
28 0 39
28 1 4
28 2 14
28 3 43
28 4 49
28 5 44
28 6 36
28 7 5
28 8 43
28 9 15
28 10 41
28 11 25
28 12 34
28 13 20
28 14 37
28 15 2
28 16 40
28 17 29
28 18 13
28 19 45
28 20 28
28 21 6
28 22 27
28 23 17
28 24 37
28 25 30
28 26 12
28 27 11
29 0 8
29 1 44
29 2 22
29 3 30
29 4 17
29 5 4
29 6 39
29 7 21
29 8 23
29 9 40
29 10 37
29 11 1
29 12 6
29 13 37
29 14 1
29 15 31
29 16 14
29 17 49
29 18 18
29 19 13
29 20 35
29 21 13
29 22 17
29 23 12
29 24 39
29 25 22
29 26 2
29 27 12
29 28 11
30 0 3
30 1 19
30 2 6
30 3 23
30 4 3
30 5 41
30 6 27
30 7 24
30 8 38
30 9 23
30 10 33
30 11 12
30 12 32
30 13 49
30 14 33
30 15 23
30 16 33
30 17 40
30 18 44
30 19 44
30 20 2
30 21 17
30 22 34
30 23 27
30 24 47
30 25 19
30 26 20
30 27 33
30 28 17
30 29 49
31 0 50
31 1 3
31 2 37
31 3 17
31 4 22
31 5 19
31 6 8
31 7 17
31 8 24
31 9 25
31 10 2
31 11 7
31 12 39
31 13 28
31 14 4
31 15 36
31 16 25
31 17 6
31 18 19
31 19 15
31 20 29
31 21 47
31 22 1
31 23 6
31 24 27
31 25 14
31 26 21
31 27 41
31 28 15
31 29 10
31 30 40
32 0 34
32 1 34
32 2 45
32 3 19
32 4 11
32 5 21
32 6 5
32 7 38
32 8 5
32 9 30
32 10 1
32 11 10
32 12 7
32 13 14
32 14 34
32 15 27
32 16 50
32 17 23
32 18 12
32 19 29
32 20 44
32 21 38
32 22 44
32 23 35
32 24 10
32 25 16
32 26 11
32 27 50
32 28 8
32 29 46
32 30 19
32 31 37
33 0 32
33 1 21
33 2 16
33 3 13
33 4 43
33 5 36
33 6 37
33 7 48
33 8 32
33 9 4
33 10 1
33 11 8
33 12 15
33 13 24
33 14 36
33 15 27
33 16 29
33 17 16
33 18 34
33 19 40
33 20 4
33 21 28
33 22 49
33 23 30
33 24 45
33 25 10
33 26 47
33 27 45
33 28 35
33 29 37
33 30 50
33 31 22
33 32 28
34 0 45
34 1 25
34 2 36
34 3 38
34 4 41
34 5 13
34 6 40
34 7 43
34 8 20
34 9 32
34 10 1
34 11 36
34 12 41
34 13 33
34 14 10
34 15 39
34 16 50
34 17 1
34 18 38
34 19 27
34 20 31
34 21 18
34 22 19
34 23 20
34 24 20
34 25 8
34 26 33
34 27 32
34 28 4
34 29 33
34 30 46
34 31 7
34 32 36
34 33 16
35 0 24
35 1 45
35 2 20
35 3 18
35 4 32
35 5 49
35 6 44
35 7 7
35 8 19
35 9 41
35 10 18
35 11 10
35 12 25
35 13 22
35 14 4
35 15 19
35 16 40
35 17 42
35 18 28
35 19 41
35 20 12
35 21 32
35 22 32
35 23 32
35 24 26
35 25 43
35 26 25
35 27 32
35 28 15
35 29 3
35 30 39
35 31 11
35 32 5
35 33 36
35 34 40
36 0 20
36 1 31
36 2 15
36 3 50
36 4 41
36 5 36
36 6 9
36 7 5
36 8 33
36 9 44
36 10 38
36 11 10
36 12 22
36 13 15
36 14 25
36 15 14
36 16 36
36 17 18
36 18 7
36 19 25
36 20 8
36 21 43
36 22 40
36 23 17
36 24 38
36 25 15
36 26 41
36 27 38
36 28 1
36 29 19
36 30 2
36 31 20
36 32 15
36 33 1
36 34 16
36 35 40
37 0 42
37 1 47
37 2 21
37 3 23
37 4 44
37 5 21
37 6 16
37 7 21
37 8 11
37 9 4
37 10 41
37 11 23
37 12 50
37 13 11
37 14 49
37 15 44
37 16 16
37 17 30
37 18 27
37 19 49
37 20 18
37 21 30
37 22 37
37 23 24
37 24 46
37 25 38
37 26 43
37 27 50
37 28 22
37 29 36
37 30 22
37 31 19
37 32 12
37 33 29
37 34 8
37 35 32
37 36 8
38 0 24
38 1 43
38 2 31
38 3 3
38 4 38
38 5 41
38 6 46
38 7 49
38 8 6
38 9 33
38 10 18
38 11 26
38 12 31
38 13 24
38 14 13
38 15 10
38 16 12
38 17 38
38 18 13
38 19 19
38 20 35
38 21 20
38 22 13
38 23 29
38 24 25
38 25 49
38 26 9
38 27 39
38 28 21
38 29 47
38 30 3
38 31 7
38 32 45
38 33 13
38 34 49
38 35 25
38 36 13
38 37 4
39 0 50
39 1 15
39 2 26
39 3 3
39 4 32
39 5 44
39 6 5
39 7 22
39 8 50
39 9 13
39 10 1
39 11 20
39 12 21
39 13 2
39 14 6
39 15 46
39 16 6
39 17 37
39 18 29
39 19 4
39 20 23
39 21 44
39 22 36
39 23 50
39 24 36
39 25 35
39 26 27
39 27 21
39 28 15
39 29 12
39 30 6
39 31 38
39 32 1
39 33 43
39 34 23
39 35 14
39 36 45
39 37 3
39 38 2
40 0 21
40 1 15
40 2 41
40 3 47
40 4 35
40 5 33
40 6 30
40 7 40
40 8 32
40 9 7
40 10 5
40 11 47
40 12 29
40 13 36
40 14 22
40 15 36
40 16 18
40 17 33
40 18 47
40 19 31
40 20 10
40 21 23
40 22 47
40 23 48
40 24 21
40 25 35
40 26 33
40 27 47
40 28 31
40 29 14
40 30 13
40 31 27
40 32 31
40 33 47
40 34 11
40 35 29
40 36 2
40 37 19
40 38 34
40 39 39
41 0 34
41 1 49
41 2 1
41 3 36
41 4 47
41 5 2
41 6 45
41 7 1
41 8 31
41 9 16
41 10 46
41 11 10
41 12 14
41 13 41
41 14 13
41 15 42
41 16 46
41 17 25
41 18 38
41 19 19
41 20 22
41 21 10
41 22 2
41 23 14
41 24 12
41 25 44
41 26 40
41 27 25
41 28 5
41 29 11
41 30 44
41 31 38
41 32 46
41 33 38
41 34 37
41 35 34
41 36 6
41 37 28
41 38 49
41 39 1
41 40 42
42 0 49
42 1 39
42 2 23
42 3 4
42 4 30
42 5 31
42 6 36
42 7 20
42 8 1
42 9 9
42 10 50
42 11 2
42 12 41
42 13 16
42 14 47
42 15 26
42 16 30
42 17 44
42 18 34
42 19 40
42 20 18
42 21 26
42 22 27
42 23 47
42 24 24
42 25 24
42 26 30
42 27 26
42 28 42
42 29 37
42 30 13
42 31 30
42 32 8
42 33 23
42 34 12
42 35 35
42 36 16
42 37 11
42 38 40
42 39 5
42 40 26
42 41 39
43 0 9
43 1 31
43 2 23
43 3 11
43 4 29
43 5 25
43 6 23
43 7 28
43 8 45
43 9 8
43 10 49
43 11 31
43 12 18
43 13 45
43 14 22
43 15 12
43 16 31
43 17 44
43 18 14
43 19 17
43 20 44
43 21 34
43 22 49
43 23 36
43 24 19
43 25 40
43 26 8
43 27 46
43 28 50
43 29 18
43 30 11
43 31 9
43 32 48
43 33 10
43 34 48
43 35 49
43 36 49
43 37 50
43 38 12
43 39 37
43 40 7
43 41 8
43 42 33
44 0 42
44 1 20
44 2 25
44 3 32
44 4 37
44 5 36
44 6 8
44 7 26
44 8 4
44 9 50
44 10 9
44 11 33
44 12 50
44 13 6
44 14 23
44 15 22
44 16 6
44 17 15
44 18 22
44 19 34
44 20 32
44 21 19
44 22 22
44 23 5
44 24 43
44 25 10
44 26 29
44 27 21
44 28 44
44 29 49
44 30 37
44 31 39
44 32 16
44 33 3
44 34 40
44 35 7
44 36 16
44 37 6
44 38 25
44 39 41
44 40 9
44 41 6
44 42 15
44 43 41
45 0 18
45 1 25
45 2 9
45 3 47
45 4 34
45 5 11
45 6 22
45 7 19
45 8 4
45 9 45
45 10 30
45 11 1
45 12 5
45 13 42
45 14 17
45 15 32
45 16 3
45 17 5
45 18 33
45 19 45
45 20 29
45 21 27
45 22 11
45 23 27
45 24 42
45 25 31
45 26 2
45 27 29
45 28 40
45 29 29
45 30 13
45 31 49
45 32 17
45 33 41
45 34 35
45 35 19
45 36 41
45 37 7
45 38 14
45 39 45
45 40 40
45 41 39
45 42 26
45 43 32
45 44 36
46 0 27
46 1 43
46 2 6
46 3 39
46 4 25
46 5 22
46 6 11
46 7 26
46 8 2
46 9 18
46 10 18
46 11 30
46 12 4
46 13 47
46 14 28
46 15 44
46 16 46
46 17 13
46 18 45
46 19 44
46 20 2
46 21 1
46 22 40
46 23 2
46 24 39
46 25 25
46 26 24
46 27 27
46 28 28
46 29 18
46 30 2
46 31 27
46 32 15
46 33 7
46 34 2
46 35 46
46 36 6
46 37 9
46 38 47
46 39 12
46 40 18
46 41 48
46 42 21
46 43 12
46 44 40
46 45 9
47 0 25
47 1 3
47 2 12
47 3 17
47 4 50
47 5 13
47 6 4
47 7 6
47 8 45
47 9 1
47 10 26
47 11 14
47 12 20
47 13 17
47 14 21
47 15 32
47 16 42
47 17 1
47 18 50
47 19 26
47 20 46
47 21 31
47 22 3
47 23 28
47 24 35
47 25 49
47 26 7
47 27 39
47 28 13
47 29 32
47 30 44
47 31 26
47 32 15
47 33 30
47 34 36
47 35 15
47 36 41
47 37 48
47 38 18
47 39 4
47 40 29
47 41 26
47 42 47
47 43 11
47 44 17
47 45 20
47 46 26
48 0 5
48 1 33
48 2 9
48 3 35
48 4 24
48 5 6
48 6 11
48 7 6
48 8 36
48 9 47
48 10 50
48 11 21
48 12 29
48 13 28
48 14 42
48 15 37
48 16 20
48 17 32
48 18 13
48 19 47
48 20 30
48 21 17
48 22 31
48 23 8
48 24 41
48 25 12
48 26 15
48 27 4
48 28 18
48 29 41
48 30 2
48 31 29
48 32 31
48 33 27
48 34 25
48 35 4
48 36 34
48 37 7
48 38 4
48 39 8
48 40 6
48 41 20
48 42 26
48 43 45
48 44 44
48 45 27
48 46 47
48 47 21
49 0 43
49 1 11
49 2 10
49 3 17
49 4 15
49 5 23
49 6 44
49 7 50
49 8 4
49 9 12
49 10 50
49 11 48
49 12 50
49 13 30
49 14 31
49 15 4
49 16 5
49 17 12
49 18 43
49 19 46
49 20 39
49 21 4
49 22 31
49 23 22
49 24 26
49 25 19
49 26 29
49 27 24
49 28 50
49 29 19
49 30 49
49 31 1
49 32 21
49 33 14
49 34 49
49 35 28
49 36 44
49 37 16
49 38 18
49 39 1
49 40 18
49 41 11
49 42 5
49 43 46
49 44 35
49 45 6
49 46 20
49 47 42
49 48 20
